
List of user-set options:

                                    Name   Value                used
                           compl_inf_tol = 1                     yes
                         constr_viol_tol = 1                     yes
                            dual_inf_tol = 1000                  yes
                           linear_solver = ma97                  yes
                              ma86_small = 1e-30                  no
                                  ma86_u = 0.0001                 no
                              ma97_order = best                  yes
                              ma97_small = 1e-30                 yes
                            ma97_switch1 = at_start              yes
                            ma97_switch2 = od_hd_reuse           yes
                                  ma97_u = 1e-06                 yes
                               ma97_umax = 0.5                   yes
                                max_iter = 1000                  yes
                    max_refinement_steps = 20                    yes
                    min_refinement_steps = 5                     yes
                                 mu_init = 1e-06                 yes
           mu_superlinear_decrease_power = 1.25                  yes
                   nlp_scaling_min_value = 1e-08                 yes
                        option_file_name = Preset_Case:_707_NCP.opt  yes
                             output_file = ./tmp/Preset_Case:_707_NCP.output  yes
                      print_user_options = yes                   yes
        required_infeasibility_reduction = 1                      no
                                     tol = 1e-08                 yes
                   warm_start_bound_frac = 1e-20                 yes
                   warm_start_bound_push = 1e-20                 yes
                   warm_start_init_point = yes                   yes
              warm_start_mult_bound_push = 1e-20                 yes
                warm_start_mult_init_max = 1e+40                 yes
             warm_start_slack_bound_frac = 1e-20                 yes
             warm_start_slack_bound_push = 1e-20                 yes

******************************************************************************
This program contains Ipopt, a library for large-scale nonlinear optimization.
 Ipopt is released as open source code under the Eclipse Public License (EPL).
         For more information visit http://projects.coin-or.org/Ipopt
******************************************************************************

This is Ipopt version 3.12.10, running with linear solver ma97.

Number of nonzeros in equality constraint Jacobian...:   117167
Number of nonzeros in inequality constraint Jacobian.:      213
Number of nonzeros in Lagrangian Hessian.............:    47513

Total number of variables............................:    29977
                     variables with only lower bounds:    11312
                variables with lower and upper bounds:    15135
                     variables with only upper bounds:        0
Total number of equality constraints.................:    29864
Total number of inequality constraints...............:       25
        inequality constraints with only lower bounds:        4
   inequality constraints with lower and upper bounds:        0
        inequality constraints with only upper bounds:       21

iter    objective    inf_pr   inf_du lg(mu)  ||d||  lg(rg) alpha_du alpha_pr  ls
   0 -1.5628502e-01 1.10e-01 2.00e+00  -6.0 0.00e+00    -  0.00e+00 0.00e+00   0
In iteration 0, 8 Slacks too small, adjusting variable bounds
   1 -1.5628502e-01 1.10e-01 1.72e+03  -6.0 1.12e+10    -  1.72e-13 3.03e-18h  1
   2 -1.5628463e-01 1.10e-01 1.72e+03  -6.0 2.73e+02    -  5.94e-03 1.59e-05f  1
   3 -1.5615041e-01 1.09e-01 1.69e+03  -6.0 1.48e+02    -  3.12e-02 1.00e-02h  1
   4 -1.5567958e-01 1.06e-01 1.66e+03  -6.0 1.63e+02    -  4.98e-03 2.49e-02h  2
   5 -1.5548015e-01 1.04e-01 1.63e+03  -6.0 1.32e+02    -  3.27e-02 1.38e-02h  3
   6 -1.5522449e-01 1.03e-01 1.60e+03  -6.0 1.08e+02    -  2.10e-02 1.42e-02h  4
   7 -1.5495156e-01 1.01e-01 1.57e+03  -6.0 1.13e+02    -  1.43e-02 1.75e-02h  4
   8 -1.5461167e-01 9.88e-02 1.52e+03  -6.0 1.05e+02    -  6.13e-02 2.21e-02h  4
   9 -1.5433558e-01 9.71e-02 1.47e+03  -6.0 9.90e+01    -  4.94e-02 1.73e-02h  5
iter    objective    inf_pr   inf_du lg(mu)  ||d||  lg(rg) alpha_du alpha_pr  ls
  10 -1.5406755e-01 9.55e-02 1.41e+03  -6.0 9.48e+01    -  8.41e-02 1.69e-02h  5
  11 -1.5379817e-01 9.39e-02 1.37e+03  -6.0 9.09e+01    -  3.03e-02 1.68e-02h  5
  12 -1.5355422e-01 9.24e-02 1.26e+03  -6.0 8.89e+01    -  1.72e-01 1.61e-02h  5
  13 -1.5327021e-01 9.08e-02 1.23e+03  -6.0 8.37e+01    -  2.62e-02 1.72e-02h  5
  14 -1.5346921e-01 9.06e-02 1.23e+03  -6.0 6.51e+02  -4.0 5.06e-08 2.05e-03f  1
  15 -1.5318476e-01 8.90e-02 7.34e+03  -6.0 8.04e+01    -  8.89e-02 1.79e-02h  5
  16 -1.5282990e-01 8.69e-02 1.13e+04  -6.0 7.67e+01    -  6.87e-02 2.31e-02h  3
  17 -1.5254541e-01 8.52e-02 1.99e+04  -6.0 7.45e+01    -  1.25e-01 1.93e-02h  4
  18 -1.5228341e-01 8.38e-02 2.60e+04  -6.0 7.22e+01    -  1.08e-01 1.69e-02h  5
  19 -1.5196388e-01 8.21e-02 3.57e+04  -6.0 7.12e+01    -  1.89e-01 2.07e-02h  5
iter    objective    inf_pr   inf_du lg(mu)  ||d||  lg(rg) alpha_du alpha_pr  ls
  20 -1.5158169e-01 8.01e-02 3.61e+04  -6.0 7.06e+01    -  5.03e-02 2.39e-02h  5
  21 -1.5121219e-01 7.82e-02 5.38e+04  -6.0 6.89e+01    -  4.28e-01 2.32e-02h  5
  22 -1.5090830e-01 7.69e-02 5.47e+04  -6.0 7.36e+01    -  9.15e-02 1.67e-02h  4
  23 -1.5044784e-01 7.50e-02 5.55e+04  -6.0 7.40e+01    -  1.21e-01 2.50e-02h  3
  24 -1.5000372e-01 7.34e-02 5.54e+04  -6.0 1.54e+02    -  4.14e-01 2.13e-02h  4
  25 -1.4926762e-01 7.61e-02 5.95e+04  -6.0 9.27e+01    -  3.11e-01 3.65e-02w  1
  26 -1.4288799e-01 2.08e+00 3.07e+04  -6.0 9.36e+01    -  2.99e-01 4.32e-01w  1
  27 -1.4036421e-01 3.42e+00 5.61e+04  -6.0 1.82e+02    -  2.63e-01 1.18e-01w  1
  28 -1.4963567e-01 7.21e-02 6.09e+04  -6.0 1.89e+02    -  3.11e-01 1.83e-02h  1
  29 -1.4930838e-01 7.08e-02 6.58e+04  -6.0 1.01e+02    -  3.38e-01 1.70e-02h  1
iter    objective    inf_pr   inf_du lg(mu)  ||d||  lg(rg) alpha_du alpha_pr  ls
  30 -1.4891860e-01 6.89e-02 7.05e+04  -6.0 1.17e+02    -  3.03e-01 2.72e-02h  5
  31 -1.4888399e-01 6.89e-02 7.49e+04  -6.0 3.26e+02    -  5.01e-02 6.36e-04h  6
  32 -1.4886772e-01 6.89e-02 7.98e+04  -6.0 6.35e+02    -  3.44e-02 1.57e-04h  7
  33 -1.4869027e-01 6.84e-02 8.64e+04  -6.0 1.85e+02    -  1.97e-01 6.10e-03h  4
  34 -1.4841650e-01 6.73e-02 9.44e+04  -6.0 3.58e+01  -4.5 3.45e-01 1.88e-02h  3
  35 -1.4816443e-01 7.44e-02 1.14e+05  -6.0 3.53e+01  -4.1 4.76e-01 1.65e-02h  3
  36 -1.4778472e-01 8.38e-02 1.42e+05  -6.0 2.93e+01  -3.6 5.19e-01 2.42e-02h  2
  37 -1.4769270e-01 8.90e-02 1.71e+05  -6.0 8.01e+01  -4.1 4.55e-01 5.27e-03h  3
  38 -1.4751006e-01 9.10e-02 2.11e+05  -6.0 3.96e+01  -3.7 5.96e-01 9.28e-03h  3
  39 -1.4749864e-01 9.11e-02 2.26e+05  -6.0 1.47e+02  -4.2 2.41e-01 3.76e-04h  8
iter    objective    inf_pr   inf_du lg(mu)  ||d||  lg(rg) alpha_du alpha_pr  ls
  40 -1.4256109e-01 1.78e+00 2.06e+05  -6.0 5.12e+01  -3.7 5.54e-01 2.05e-01w  1
  41 -1.3541806e-01 5.20e+00 3.81e+05  -6.0 5.03e+01  -3.3 7.66e-01 3.44e-01w  1
  42 -1.3372822e-01 5.36e+00 3.16e+06  -6.0 6.13e+01  -2.9 8.26e-01 8.98e-02w  1
  43 -1.4734434e-01 9.22e-02 2.66e+05  -6.0 8.85e+01  -3.4 5.54e-01 6.41e-03h  5
  44 -1.4727868e-01 9.25e-02 3.04e+05  -6.0 5.95e+01  -3.8 6.27e-01 2.53e-03h  8
  45 -1.4710212e-01 9.28e-02 3.37e+05  -6.0 5.27e+01  -3.4 2.27e-01 7.17e-03h  7
  46 -1.4706520e-01 9.30e-02 3.51e+05  -6.0 6.91e+01  -3.9 5.35e-01 1.34e-03h  8
  47 -1.4685897e-01 9.40e-02 3.79e+05  -6.0 5.84e+01  -3.5 2.30e-01 8.05e-03h  7
  48 -1.4683506e-01 9.41e-02 3.78e+05  -6.0 8.71e+01  -3.9 4.00e-01 8.45e-04h  8
  49 -1.4664447e-01 9.53e-02 4.11e+05  -6.0 6.18e+01  -3.5 3.07e-01 7.30e-03h  7
iter    objective    inf_pr   inf_du lg(mu)  ||d||  lg(rg) alpha_du alpha_pr  ls
  50 -1.4662808e-01 9.54e-02 4.04e+05  -6.0 1.09e+02  -4.0 3.09e-01 5.63e-04h  8
  51 -1.4653959e-01 9.56e-02 4.49e+05  -6.0 6.49e+01  -3.6 4.82e-01 3.35e-03h  8
  52 -1.4652250e-01 9.57e-02 4.35e+05  -6.0 1.06e+02  -4.0 2.29e-01 6.34e-04h  8
  53 -1.4673139e-01 3.24e+00 3.58e+05  -6.0 1.62e+02  -4.5 4.62e-01 6.06e-02w  1
  54 -1.4728905e-01 3.26e+00 3.33e+05  -6.0 5.50e+02  -5.0 3.53e-01 7.09e-03w  1
  55 -1.3592057e-01 1.11e+01 1.19e+05  -6.0 1.92e+02  -5.5 8.56e-01 4.79e-01w  1
  56 -1.4652413e-01 9.58e-02 3.76e+05  -6.0 1.29e+01  -1.4 4.62e-01 4.73e-04h  7
  57 -1.4596944e-01 9.64e-02 3.82e+05  -6.0 1.79e+01  -1.9 4.93e-02 3.41e-02h  1
  58 -1.4540782e-01 9.77e-02 4.83e+05  -6.0 1.83e+01  -2.4 1.98e-01 3.20e-02h  4
  59 -1.4512923e-01 9.91e-02 6.86e+05  -6.0 3.49e+01  -2.9 3.66e-01 1.36e-02h  4
iter    objective    inf_pr   inf_du lg(mu)  ||d||  lg(rg) alpha_du alpha_pr  ls
  60 -1.4506185e-01 9.95e-02 8.95e+05  -6.0 5.61e+01  -3.3 7.60e-01 2.77e-03h  4
  61 -1.4505117e-01 9.96e-02 8.40e+05  -6.0 1.31e+02  -3.8 3.43e-01 4.38e-04h  6
  62 -1.4505118e-01 1.00e-01 6.96e+05  -6.0 1.29e+02  -4.3 5.97e-01 1.05e-03h  5
  63 -1.4520053e-01 1.02e-01 6.97e+05  -6.0 8.33e+02  -4.8 2.43e-01 1.25e-03h  5
  64 -1.4518509e-01 1.03e-01 5.14e+05  -6.0 1.19e+02  -4.3 7.44e-01 2.25e-03h  7
  65 -1.4544971e-01 1.09e-01 5.45e+05  -6.0 8.04e+02  -4.8 1.89e-01 2.36e-03h  4
  66 -1.4542998e-01 1.09e-01 4.54e+05  -6.0 1.10e+02  -4.4 1.00e+00 2.53e-03h  7
  67 -1.4546075e-01 1.09e-01 4.79e+05  -6.0 2.55e+02  -4.9 4.15e-01 1.79e-03h  6
  68 -1.4350106e-01 6.85e+00 2.77e+05  -6.0 3.53e+02  -5.3 1.00e+00 2.78e-01w  1
  69 -1.4211610e-01 6.97e+00 2.90e+05  -6.0 5.68e+02  -5.8 5.74e-01 1.13e-01w  1
iter    objective    inf_pr   inf_du lg(mu)  ||d||  lg(rg) alpha_du alpha_pr  ls
  70 -1.3257114e-01 2.83e+01 4.39e+04  -6.0 2.32e+02  -5.4 1.49e-04 6.35e-01w  1
  71 -1.4544544e-01 1.09e-01 3.83e+05  -6.0 1.27e+02  -5.9 1.00e+00 2.17e-03h  7
  72 -1.4542589e-01 1.09e-01 3.60e+05  -6.0 3.86e+02  -5.4 5.12e-01 1.41e-03h  9
  73 -1.4542151e-01 1.09e-01 3.75e+05  -6.0 1.77e+02  -5.0 1.00e+00 2.70e-04h 12
  74 -1.4542139e-01 1.09e-01 3.70e+05  -6.0 4.50e+02  -5.5 4.09e-01 1.08e-05h 16
  75 -1.3746091e-01 1.59e+01 1.86e+05  -6.0 2.04e+02  -5.1 4.99e-01 4.99e-01s 21
  76 -1.3743445e-01 1.59e+01 1.86e+05  -6.0 4.11e+02  -5.6 1.82e-03 1.82e-03s 21
  77 -1.3256124e-01 1.67e+01 1.29e+05  -6.0 2.05e+02  -5.1 3.07e-01 3.07e-01s 21
  78 -1.3212376e-01 1.96e+01 1.22e+05  -6.0 1.02e+03  -5.6 6.19e-02 6.19e-02s 21
  79 -1.3050440e-01 1.47e+01 9.13e+04  -6.0 6.25e+02  -6.1 2.50e-01 2.50e-01s 21
iter    objective    inf_pr   inf_du lg(mu)  ||d||  lg(rg) alpha_du alpha_pr  ls
  80 -1.3016444e-01 1.35e+01 8.40e+04  -6.0 1.18e+02  -5.7 8.04e-02 8.04e-02s 21
  81 -1.3108347e-01 1.03e+01 6.45e+04  -6.0 2.14e+02  -6.1 2.34e-01 2.34e-01s 21
  82 -1.3006552e-01 5.40e+00 3.40e+04  -6.0 7.66e+01  -5.7 4.73e-01 4.73e-01s 21
  83 -1.3352836e-01 1.87e+00 1.08e+04  -6.0 9.13e+01  -6.2 6.52e-01 6.52e-01s 21
  84 -1.4467250e-01 1.23e+00 5.42e+03  -6.0 2.49e+02  -6.7 4.16e-01 4.16e-01s 21
  85 -1.4481302e-01 1.22e+00 5.37e+03  -6.0 1.22e+02  -6.2 8.16e-03 8.16e-03s 21
  86r-1.4481302e-01 1.22e+00 1.00e+03  -0.4 0.00e+00  -6.7 0.00e+00 0.00e+00R  1
  87r-1.3824369e-01 1.21e+00 1.00e+03  -0.4 7.39e+04    -  2.00e-07 7.40e-06f  1
  88r-1.3818097e-01 1.21e+00 7.03e+03  -0.4 1.80e+01   2.0 7.22e-05 7.49e-06f  1
  89r-1.3440682e-01 1.20e+00 9.84e+03  -0.4 2.83e+01   1.5 2.38e-05 1.78e-04f  1
iter    objective    inf_pr   inf_du lg(mu)  ||d||  lg(rg) alpha_du alpha_pr  ls
  90r-1.3434488e-01 1.20e+00 2.96e+05  -0.4 8.87e-02   5.6 5.32e-03 2.21e-04f  1
  91r-1.3782289e-01 3.40e-01 3.03e+05  -0.4 4.21e+02    -  1.83e-03 1.01e-03f  1
  92 -1.4045005e-01 2.18e-01 2.12e+01  -6.0 2.13e+00    -  2.87e-01 3.60e-01h  1
  93 -1.4173496e-01 1.56e-01 2.72e+01  -6.0 2.20e+00    -  4.00e-01 2.84e-01h  1
  94 -1.4327324e-01 7.78e-02 3.12e+01  -6.0 2.25e+00    -  2.61e-01 5.03e-01h  1
  95 -1.4423928e-01 2.74e-02 3.52e+01  -6.0 1.23e+00    -  5.06e-01 6.48e-01h  1
  96 -1.4470705e-01 7.89e-03 1.98e+01  -6.0 4.58e-01    -  5.82e-01 7.12e-01h  1
  97 -1.4490023e-01 4.66e-03 2.39e+01  -6.0 7.63e-01    -  6.98e-01 4.09e-01h  1
  98 -1.4577284e-01 7.30e-03 1.45e+01  -6.0 2.22e+00    -  8.10e-01 1.00e+00h  1
  99 -1.4911677e-01 6.78e-03 7.72e+01  -6.0 9.95e+00    -  2.29e-01 8.09e-01H  1
iter    objective    inf_pr   inf_du lg(mu)  ||d||  lg(rg) alpha_du alpha_pr  ls
 100 -1.4964234e-01 8.12e-03 5.57e+01  -6.0 1.30e+01    -  4.54e-01 1.32e-01h  1
 101 -1.5221346e-01 5.94e-02 3.67e+01  -6.0 2.27e+01    -  3.61e-01 4.16e-01H  1
 102 -1.5378363e-01 8.62e-02 3.17e+01  -6.0 3.51e+01    -  5.50e-01 2.12e-01f  1
 103 -1.5436195e-01 8.73e-02 3.42e+01  -6.0 7.50e+01    -  5.75e-01 4.22e-02h  3
 104 -1.5648703e-01 1.35e-01 4.33e+01  -6.0 1.77e+02    -  3.20e-01 1.06e-01h  2
 105 -1.5755466e-01 1.37e-01 9.00e+01  -6.0 2.98e+02    -  5.16e-01 5.38e-02h  3
 106 -1.5871734e-01 1.37e-01 1.02e+02  -6.0 6.30e+02    -  2.08e-01 3.93e-02h  2
 107 -1.6053972e-01 2.34e-01 1.10e+02  -6.0 8.89e+02    -  2.13e-01 5.40e-02h  1
 108 -1.6791960e-01 1.45e+00 9.56e+01  -6.0 9.80e+02    -  3.49e-01 2.06e-01h  1
Error in an AMPL evaluation. Run with "halt_on_ampl_error yes" to see details.
Warning: Cutting back alpha due to evaluation error
 109 -1.7409420e-01 2.52e+00 9.69e+01  -6.0 1.42e+03    -  3.15e-01 1.50e-01h  2
iter    objective    inf_pr   inf_du lg(mu)  ||d||  lg(rg) alpha_du alpha_pr  ls
 110 -1.9117855e-01 6.78e+00 2.00e+02  -6.0 1.46e+03    -  5.25e-01 3.88e-01h  1
 111 -2.0131257e-01 1.00e+01 2.23e+02  -6.0 3.43e+03    -  4.12e-02 1.94e-01h  1
 112 -2.0230652e-01 7.46e+00 2.19e+02  -6.0 6.30e+01  -7.2 1.14e-03 2.54e-01h  1
 113 -2.0310039e-01 6.87e+00 2.11e+02  -6.0 1.21e+03  -7.7 1.49e-02 8.00e-02h  1
 114 -2.0767896e-01 4.86e+00 1.62e+02  -6.0 5.38e+02  -8.1 2.70e-01 3.42e-01h  1
 115 -2.0960965e-01 3.83e+00 1.59e+02  -6.0 4.35e+02  -7.7 3.17e-03 2.53e-01h  1
 116 -2.1317313e-01 4.48e+00 2.12e+02  -6.0 5.07e+02  -8.2 9.32e-02 2.82e-01h  1
 117 -2.1450457e-01 4.55e+00 2.88e+02  -6.0 3.92e+02  -7.8 6.09e-03 1.51e-01h  1
Error in an AMPL evaluation. Run with "halt_on_ampl_error yes" to see details.
Warning: Cutting back alpha due to evaluation error
 118 -2.1555678e-01 4.86e+00 3.30e+02  -6.0 1.31e+03  -8.2 1.99e-03 5.36e-02h  2
 119 -2.1561477e-01 4.83e+00 1.20e+02  -6.0 1.77e+02  -6.9 2.45e-01 6.31e-03h  1
iter    objective    inf_pr   inf_du lg(mu)  ||d||  lg(rg) alpha_du alpha_pr  ls
 120 -2.1825111e-01 5.97e+00 2.41e+04  -6.0 2.37e+02  -7.4 2.86e-05 4.80e-01h  1
 121 -2.1950195e-01 6.50e+00 2.15e+04  -6.0 4.64e+02  -7.9 1.38e-01 1.05e-01h  1
 122 -2.2642988e-01 2.45e+00 8.69e+03  -6.0 6.13e+02  -8.3 7.02e-05 5.96e-01h  1
 123 -2.2842763e-01 2.52e+00 7.41e+03  -6.0 1.10e+03  -8.8 4.06e-01 1.48e-01h  1
 124 -2.3954184e-01 2.26e+01 2.39e+03  -6.0 1.72e+03  -9.3 3.58e-01 6.78e-01h  1
 125 -2.4158312e-01 1.74e+01 1.73e+03  -6.0 1.94e+03  -9.8 1.31e-01 2.76e-01h  1
 126 -2.4453506e-01 2.40e+01 1.27e+03  -6.0 4.14e+03 -10.3 2.92e-02 2.64e-01h  1
 127 -2.4455770e-01 2.09e+01 1.10e+03  -6.0 1.93e+03    -  1.51e-01 1.36e-01h  1
 128 -2.4458656e-01 2.08e+01 1.09e+03  -6.0 1.52e+03    -  6.38e-02 5.66e-03h  1
 129 -2.4566631e-01 2.61e+01 1.06e+03  -6.0 1.99e+04    -  3.20e-02 2.75e-02h  1
iter    objective    inf_pr   inf_du lg(mu)  ||d||  lg(rg) alpha_du alpha_pr  ls
 130 -2.4648928e-01 2.30e+01 9.69e+02  -6.0 1.61e+03    -  2.63e-03 1.30e-01h  1
 131 -2.4752214e-01 2.16e+01 1.18e+03  -6.0 1.99e+03    -  7.88e-02 1.45e-01h  1
 132 -2.4801871e-01 2.03e+01 7.26e+02  -6.0 1.76e+03    -  2.18e-01 8.27e-02h  1
 133 -2.5100994e-01 2.37e+01 5.10e+02  -6.0 2.63e+03    -  3.23e-01 3.78e-01h  1
 134 -2.5141944e-01 2.20e+01 1.08e+03  -6.0 3.42e+03    -  2.99e-02 7.36e-02h  1
 135 -2.5181807e-01 2.17e+01 1.33e+03  -6.0 4.19e+03    -  1.94e-02 3.77e-02h  1
 136 -2.5237936e-01 1.95e+01 3.73e+03  -6.0 3.42e+03    -  4.08e-01 1.01e-01h  1
 137 -2.5443530e-01 1.20e+01 3.67e+03  -6.0 3.72e+03    -  5.08e-01 3.84e-01h  1
 138 -2.5636936e-01 2.96e+01 3.14e+06  -6.0 3.18e+03    -  4.36e-03 6.59e-01h  1
 139 -2.5647223e-01 2.74e+01 2.91e+06  -6.0 2.58e+03    -  2.47e-01 7.33e-02h  1
iter    objective    inf_pr   inf_du lg(mu)  ||d||  lg(rg) alpha_du alpha_pr  ls
 140 -2.5684863e-01 2.22e+01 1.83e+06  -6.0 2.29e+03    -  4.15e-02 3.71e-01h  1
 141 -2.5694758e-01 1.86e+01 1.53e+06  -6.0 8.22e+02  -9.8 1.69e-03 1.64e-01h  1
 142 -2.5731549e-01 8.52e+00 6.37e+05  -6.0 6.03e+02 -10.3 2.15e-01 5.84e-01h  1
 143 -2.5783554e-01 2.97e+01 3.12e+05  -6.0 2.96e+03    -  2.54e-01 5.10e-01h  1
 144 -2.5802880e-01 2.50e+01 2.21e+05  -6.0 1.97e+03    -  4.00e-01 2.92e-01h  1
 145 -2.5830478e-01 1.39e+01 1.22e+05  -6.0 1.97e+02  -9.9 7.85e-01 4.46e-01h  1
 146 -2.5836404e-01 1.18e+01 1.02e+05  -6.0 3.43e+03    -  2.50e-01 1.63e-01h  1
 147 -2.5878223e-01 1.25e+01 2.40e+04  -6.0 1.42e+03    -  4.46e-01 7.66e-01h  1
 148 -2.5912540e-01 3.80e+00 3.85e+03  -6.0 4.79e+02  -9.5 2.26e-01 8.47e-01h  1
 149 -2.5914141e-01 2.68e+00 5.46e+05  -6.0 7.59e+02  -9.9 3.95e-03 2.94e-01h  2
iter    objective    inf_pr   inf_du lg(mu)  ||d||  lg(rg) alpha_du alpha_pr  ls
 150 -2.5915784e-01 2.41e+00 4.91e+05  -6.0 1.78e+03    -  4.83e-01 1.01e-01h  2
 151 -2.5916642e-01 2.24e+00 4.56e+05  -6.0 1.66e+03 -10.4 1.49e-01 7.17e-02h  2
 152 -2.5917511e-01 2.20e+00 4.47e+05  -6.0 1.30e+03 -10.0 1.15e-01 1.93e-02h  4
 153 -2.5939987e-01 3.32e+00 6.17e+04  -6.0 1.90e+02  -8.7 9.01e-02 8.62e-01H  1
 154 -2.5942700e-01 3.05e+00 5.18e+04  -6.0 4.91e+01  -9.1 2.36e-02 1.61e-01h  1
 155 -2.5935987e-01 3.44e+00 3.95e+04  -6.0 1.91e+02  -9.6 4.49e-02 2.37e-01f  1
 156 -2.5935941e-01 2.80e+00 3.14e+04  -6.0 1.85e+02  -9.2 7.07e-01 2.05e-01h  1
 157 -2.5939131e-01 1.21e+00 1.32e+04  -6.0 3.27e+01  -8.8 1.00e+00 5.79e-01h  1
 158 -2.5941929e-01 4.11e-01 1.19e+01  -6.0 6.17e+01  -9.2 1.00e+00 1.00e+00h  1
 159 -2.5964704e-01 2.48e+00 8.36e+00  -6.0 5.25e+02  -9.7 7.11e-01 1.00e+00H  1
iter    objective    inf_pr   inf_du lg(mu)  ||d||  lg(rg) alpha_du alpha_pr  ls
 160 -2.5964598e-01 2.45e+00 4.39e+01  -6.0 2.63e+04    -  1.12e-01 1.06e-02h  2
 161 -2.5957858e-01 1.37e+00 7.76e+00  -6.0 5.81e+02    -  1.00e+00 5.41e-01h  1
 162 -2.5955306e-01 8.73e-01 9.11e+00  -6.0 3.80e+02 -10.2 1.00e+00 3.65e-01h  1
 163 -2.5952142e-01 8.68e-01 2.25e+01  -6.0 3.97e+02    -  1.00e+00 4.34e-01h  2
 164 -2.5950158e-01 9.44e-01 6.66e+01  -6.0 8.99e+02    -  6.04e-01 7.99e-02h  3
 165 -2.5943996e-01 5.76e-01 3.39e+01  -6.0 1.43e+03  -9.8 3.98e-01 1.00e+00H  1
 166 -2.5957344e-01 8.92e-01 2.00e+00  -6.0 5.28e+02 -10.2 9.86e-01 1.00e+00H  1
 167 -2.5956779e-01 9.94e-01 8.91e+01  -6.0 9.86e+03    -  1.56e-01 8.05e-03h  2
 168 -2.5946865e-01 8.92e-01 2.43e+00  -6.0 8.75e+01  -8.9 1.00e+00 1.00e+00h  1
 169 -2.5945434e-01 8.92e-01 1.74e+01  -6.0 7.53e+02    -  7.12e-01 1.06e-01h  2
iter    objective    inf_pr   inf_du lg(mu)  ||d||  lg(rg) alpha_du alpha_pr  ls
 170 -2.5941309e-01 3.57e-01 5.49e-01  -6.0 1.37e+02  -9.4 1.00e+00 1.00e+00h  1
 171 -2.5938948e-01 7.77e-01 7.43e+00  -6.0 6.24e+02    -  1.00e+00 5.23e-01h  1
 172 -2.5938323e-01 2.31e-01 8.86e-01  -6.0 3.23e+02    -  1.00e+00 1.00e+00h  1
 173 -2.5937423e-01 1.48e-02 3.34e-02  -6.0 1.01e+02    -  1.00e+00 1.00e+00h  1
 174 -2.5937254e-01 4.03e-04 7.26e-04  -6.0 1.27e+01    -  1.00e+00 1.00e+00h  1
 175 -2.5937254e-01 9.74e-09 2.13e-08  -6.0 3.09e-02    -  1.00e+00 1.00e+00h  1
 176 -2.5980429e-01 1.11e+00 5.00e+01  -7.5 2.22e+03    -  3.93e-01 2.25e-01f  1
 177 -2.6000884e-01 1.53e+00 7.37e+01  -7.5 1.75e+03    -  3.76e-01 1.92e-01h  1
 178 -2.6033104e-01 4.80e+00 5.48e+01  -7.5 2.08e+03    -  3.17e-01 3.18e-01h  1
 179 -2.6038205e-01 4.56e+00 5.41e+01  -7.5 9.96e+02    -  1.10e-01 6.40e-02h  1
iter    objective    inf_pr   inf_du lg(mu)  ||d||  lg(rg) alpha_du alpha_pr  ls
 180 -2.6039656e-01 4.41e+00 8.72e+01  -7.5 5.66e+01  -8.1 4.41e-01 3.41e-02h  1
 181 -2.6051933e-01 3.96e+00 6.52e+01  -7.5 1.86e+03    -  2.45e-03 1.02e-01h  1
 182 -2.6068589e-01 3.62e+00 5.41e+01  -7.5 1.44e+03    -  1.60e-01 1.40e-01h  1
 183 -2.6091558e-01 3.01e+00 3.78e+01  -7.5 1.38e+03    -  1.57e-01 2.49e-01h  1
 184 -2.6102061e-01 2.69e+00 3.79e+01  -7.5 1.21e+03    -  4.19e-01 1.66e-01h  1
 185 -2.6105633e-01 2.48e+00 3.41e+01  -7.5 9.03e+01  -8.5 1.95e-02 7.89e-02h  1
 186 -2.6123789e-01 9.66e+01 3.36e+01  -7.5 7.71e+03    -  1.20e-02 3.78e-01h  1
 187 -2.6130786e-01 7.74e+01 9.12e+01  -7.5 1.17e+03    -  1.08e-03 1.99e-01h  1
 188 -2.6147481e-01 3.34e+01 1.50e+02  -7.5 4.42e+01  -9.0 2.44e-01 5.68e-01h  1
 189 -2.6153541e-01 2.40e+01 6.43e+01  -7.5 6.44e+01  -9.5 5.36e-01 2.82e-01h  1
iter    objective    inf_pr   inf_du lg(mu)  ||d||  lg(rg) alpha_du alpha_pr  ls
 190 -2.6173822e-01 3.74e+00 4.40e+02  -7.5 1.10e+02 -10.0 3.56e-01 1.00e+00h  1
 191 -2.6178349e-01 9.15e+01 4.56e+02  -7.5 1.32e+04    -  1.68e-01 2.05e-01h  1
 192 -2.6181352e-01 7.58e+01 1.05e+03  -7.5 1.33e+03    -  5.45e-01 1.79e-01h  1
 193 -2.6183132e-01 6.78e+01 5.52e+02  -7.5 1.73e+03    -  1.32e-02 1.12e-01h  1
 194 -2.6184793e-01 6.13e+01 1.37e+03  -7.5 1.77e+03    -  2.58e-01 1.04e-01h  1
 195 -2.6186428e-01 5.50e+01 4.20e+03  -7.5 1.64e+03    -  5.66e-01 1.11e-01h  1
 196 -2.6187907e-01 4.96e+01 3.34e+03  -7.5 1.39e+03    -  3.90e-02 1.04e-01h  1
 197 -2.6193196e-01 3.61e+01 1.06e+03  -7.5 1.34e+03    -  6.55e-02 3.35e-01h  1
 198 -2.6195312e-01 3.35e+01 1.03e+07  -7.5 2.73e+03    -  2.02e-04 2.16e-01h  1
 199 -2.6215718e-01 1.55e+01 4.78e+06  -7.5 1.93e+02    -  1.56e-01 5.37e-01h  1
iter    objective    inf_pr   inf_du lg(mu)  ||d||  lg(rg) alpha_du alpha_pr  ls
 200 -2.6204941e-01 2.88e+00 8.83e+05  -7.5 6.31e+01 -10.4 1.90e-03 8.15e-01h  1
 201 -2.6204968e-01 3.06e+00 8.78e+05  -7.5 1.87e+04    -  4.77e-02 6.10e-03h  4
 202 -2.6204968e-01 3.06e+00 8.77e+05  -7.5 4.54e+03    -  1.12e-01 6.78e-05h 13
 203 -2.6204620e-01 3.16e+00 8.32e+05  -7.5 2.54e+03    -  6.02e-02 5.19e-02h  5
 204 -2.6204242e-01 3.24e+00 7.82e+05  -7.5 2.18e+03    -  2.14e-01 6.04e-02h  5
 205 -2.6203496e-01 3.57e+00 6.84e+05  -7.5 1.76e+03    -  2.50e-01 1.25e-01h  4
 206 -2.6202847e-01 3.67e+00 5.98e+05  -7.5 1.50e+03    -  6.93e-01 1.25e-01h  4
 207 -2.6198313e-01 3.59e+00 3.22e+02  -7.5 1.20e+03    -  7.60e-01 1.00e+00H  1
 208 -2.6202011e-01 2.62e+00 1.87e+02  -7.5 4.27e+02    -  3.88e-01 4.16e-01h  1
 209 -2.6200159e-01 7.56e-01 3.53e-01  -7.5 2.15e+02    -  1.00e+00 1.00e+00h  1
iter    objective    inf_pr   inf_du lg(mu)  ||d||  lg(rg) alpha_du alpha_pr  ls
 210 -2.6202785e-01 3.18e-01 1.48e-01  -7.5 1.05e+02    -  6.00e-01 6.08e-01h  1
 211 -2.6203630e-01 1.42e-01 3.01e-02  -7.5 8.84e+01    -  1.00e+00 1.00e+00h  1
 212 -2.6204117e-01 1.49e-01 1.99e+00  -7.5 9.10e+01    -  5.30e-01 1.00e+00h  1
 213 -2.6204802e-01 1.31e-01 5.81e+00  -7.5 8.51e+01    -  7.27e-01 1.00e+00h  1
 214 -2.6205907e-01 1.45e-01 1.95e+01  -7.5 8.92e+01    -  7.72e-01 1.00e+00h  1
 215 -2.6206353e-01 1.17e-01 2.05e+01  -7.5 9.53e+01    -  4.19e-01 2.96e-01h  1
 216 -2.6207893e-01 2.38e-01 3.89e+00  -7.5 9.72e+01    -  1.00e+00 1.00e+00h  1
 217 -2.6208782e-01 1.03e+00 1.69e+02  -7.5 1.68e+02    -  2.89e-01 5.08e-01h  1
 218 -2.6208893e-01 9.15e-01 6.34e+02  -7.5 1.76e+02    -  2.41e-01 9.04e-02h  1
 219 -2.6208723e-01 5.06e-02 8.53e+03  -7.5 5.27e+01    -  3.06e-03 1.00e+00h  1
iter    objective    inf_pr   inf_du lg(mu)  ||d||  lg(rg) alpha_du alpha_pr  ls
 220 -2.6208756e-01 5.77e-02 1.49e+01  -7.5 3.37e+01    -  9.75e-01 1.00e+00h  1
 221 -2.6208585e-01 2.60e-03 7.78e-03  -7.5 5.83e+00    -  1.00e+00 1.00e+00h  1
 222 -2.6208581e-01 2.20e-07 1.70e-06  -7.5 1.11e-01    -  1.00e+00 1.00e+00h  1
 223 -2.6208581e-01 2.82e-10 2.17e-12  -7.5 1.70e-04    -  1.00e+00 1.00e+00h  1
 224 -2.6208721e-01 3.64e-01 4.60e+00  -9.0 1.68e+03    -  5.21e-01 8.92e-02h  1
 225 -2.6208992e-01 3.14e+01 3.73e+00  -9.0 5.92e+03    -  2.76e-01 2.34e-01h  1
 226 -2.6209185e-01 4.89e+01 2.15e+00  -9.0 3.48e+03    -  3.12e-01 3.69e-01h  1
 227 -2.6209354e-01 3.96e+01 4.68e+01  -9.0 1.53e+03    -  2.63e-03 8.10e-01h  1
 228 -2.6209358e-01 1.64e+00 2.33e+00  -9.0 2.48e+02    -  1.06e-01 1.00e+00h  1
 229 -2.6209400e-01 1.13e+01 1.27e+00  -9.0 8.53e+02    -  4.59e-01 8.70e-01h  1
iter    objective    inf_pr   inf_du lg(mu)  ||d||  lg(rg) alpha_du alpha_pr  ls
 230 -2.6209469e-01 3.48e+01 9.12e-01  -9.0 1.28e+03    -  2.78e-01 1.00e+00h  1
 231 -2.6209479e-01 3.49e+01 7.31e-01  -9.0 5.15e+03    -  2.00e-01 5.88e-02h  2
 232 -2.6209482e-01 3.49e+01 6.79e-01  -9.0 2.44e+04    -  6.77e-02 3.29e-03h  3
 233 -2.6209498e-01 3.30e+01 7.27e-01  -9.0 2.20e+03    -  8.98e-01 2.27e-01h  1
 234 -2.6209500e-01 3.22e+01 6.77e-01  -9.0 1.34e+03    -  3.63e-02 2.53e-02h  1
 235 -2.6209521e-01 6.46e-01 8.10e+01  -9.0 2.38e+02    -  8.02e-03 1.00e+00h  1
 236 -2.6209540e-01 2.68e+01 4.33e+01  -9.0 3.20e+03    -  6.96e-02 4.66e-01h  1
 237 -2.6209542e-01 2.11e-02 5.04e-04  -9.0 1.41e+01 -10.9 1.00e+00 1.00e+00h  1
 238 -2.6209543e-01 2.35e-02 1.25e-05  -9.0 4.31e+01 -11.4 1.00e+00 1.00e+00h  1
 239 -2.6209545e-01 2.23e-01 1.30e-05  -9.0 1.33e+02 -11.9 1.00e+00 1.00e+00h  1
iter    objective    inf_pr   inf_du lg(mu)  ||d||  lg(rg) alpha_du alpha_pr  ls
 240 -2.6209554e-01 2.37e+00 1.43e-04  -9.0 4.32e+02 -12.4 1.00e+00 1.00e+00h  1
 241 -2.6209591e-01 3.77e+01 2.56e-03  -9.0 1.71e+03 -12.8 1.00e+00 1.00e+00h  1
 242 -2.6209640e-01 7.42e+01 6.86e-03  -9.0 1.85e+04 -13.3 1.06e-01 9.26e-02h  1
 243 -2.6209642e-01 5.40e-01 1.90e-04  -9.0 2.66e+02    -  1.00e+00 1.00e+00h  1
 244 -2.6209682e-01 2.08e+01 1.69e-01  -9.0 1.20e+03    -  2.27e-01 1.00e+00h  1
 245 -2.6209750e-01 6.30e+01 1.53e-01  -9.0 6.95e+03    -  2.84e-02 2.54e-01h  1
 246 -2.6209825e-01 5.51e+01 7.59e-01  -9.0 1.77e+03    -  4.28e-01 1.00e+00h  1
 247 -2.6209847e-01 4.23e+01 6.94e-01  -9.0 1.69e+03    -  2.69e-01 3.61e-01h  1
 248 -2.6209896e-01 3.03e+01 7.64e+00  -9.0 1.64e+03    -  2.92e-02 7.54e-01H  1
 249 -2.6209927e-01 2.74e+01 6.30e+01  -9.0 1.14e+03    -  2.98e-02 1.00e+00h  1
iter    objective    inf_pr   inf_du lg(mu)  ||d||  lg(rg) alpha_du alpha_pr  ls
 250 -2.6209959e-01 1.58e+01 1.00e+01  -9.0 1.58e+03 -12.9 3.32e-01 8.40e-01H  1
 251 -2.6209956e-01 1.55e+01 9.20e+00  -9.0 2.47e+03    -  3.99e-01 8.51e-02h  3
 252 -2.6209954e-01 9.92e-02 6.56e-04  -9.0 4.92e+01    -  1.00e+00 1.00e+00h  1
 253 -2.6209956e-01 4.14e-01 6.81e-05  -9.0 1.32e+02    -  1.00e+00 1.00e+00h  1
 254 -2.6209956e-01 9.95e-03 1.30e-06  -9.0 2.08e+01    -  1.00e+00 1.00e+00h  1
 255 -2.6209956e-01 5.12e-06 1.79e-10  -9.0 4.52e-01    -  1.00e+00 1.00e+00h  1
 256 -2.6209956e-01 4.23e-10 1.61e-14  -9.0 1.38e-04    -  1.00e+00 1.00e+00h  1

Number of Iterations....: 256

                                   (scaled)                 (unscaled)
Objective...............:  -2.6209956144503010e-01   -2.6209956144503010e-01
Dual infeasibility......:   1.6098233857064770e-14    1.6098233857064770e-14
Constraint violation....:   4.2267122896295917e-10    4.2267122896295917e-10
Complementarity.........:   9.0909091585110304e-10    9.0909091585110304e-10
Overall NLP error.......:   9.0909091585110304e-10    9.0909091585110304e-10


Number of objective function evaluations             = 742
Number of objective gradient evaluations             = 252
Number of equality constraint evaluations            = 744
Number of inequality constraint evaluations          = 743
Number of equality constraint Jacobian evaluations   = 257
Number of inequality constraint Jacobian evaluations = 257
Number of Lagrangian Hessian evaluations             = 256
Total CPU secs in IPOPT (w/o function evaluations)   =    482.505
Total CPU secs in NLP function evaluations           =     11.570

EXIT: Optimal Solution Found.
